NAME : gaussian_missing_edges_with_de_seg1_seg2_seg3_random135.6384.tour
COMMENT : Length = 6384
COMMENT : Found by LKH [Keld Helsgaun] Fri Jul 12 16:42:58 2024
TYPE : TOUR
DIMENSION : 135
TOUR_SECTION
1
34
31
69
76
105
66
54
48
7
75
19
84
128
25
24
14
101
124
131
74
67
126
89
130
18
120
71
132
21
102
97
35
121
82
8
106
45
93
87
32
86
91
13
114
28
16
49
94
29
113
40
73
110
23
88
33
122
10
63
50
15
81
78
92
62
118
90
100
60
42
64
51
11
112
127
135
65
4
39
134
85
59
38
37
70
30
12
57
6
79
115
58
103
111
117
80
26
53
95
27
108
2
125
107
104
133
43
55
56
116
47
99
123
9
129
46
96
36
44
5
98
83
68
22
3
41
109
20
17
77
72
52
119
61
-1
EOF
